p cnf 45 330
c Contraint 1
c (1,3) has at least one color
1 2 3 0
c (3,5) has at least one color
4 5 6 0
c (5,2) has at least one color
7 8 9 0
c (2,4) has at least one color
10 11 12 0
c (4,1) has at least one color
13 14 15 0
c (6,10) has at least one color
16 17 18 0
c (10,9) has at least one color
19 20 21 0
c (9,8) has at least one color
22 23 24 0
c (8,7) has at least one color
25 26 27 0
c (7,6) has at least one color
28 29 30 0
c (1,6) has at least one color
31 32 33 0
c (5,10) has at least one color
34 35 36 0
c (4,9) has at least one color
37 38 39 0
c (3,8) has at least one color
40 41 42 0
c (2,7) has at least one color
43 44 45 0
c Contraint 2
c (1,3 is not both 1 and 2
-1 -2 0
c (3,5 is not both 1 and 2
-4 -5 0
c (5,2 is not both 1 and 2
-7 -8 0
c (2,4 is not both 1 and 2
-10 -11 0
c (4,1 is not both 1 and 2
-13 -14 0
c (6,10 is not both 1 and 2
-16 -17 0
c (10,9 is not both 1 and 2
-19 -20 0
c (9,8 is not both 1 and 2
-22 -23 0
c (8,7 is not both 1 and 2
-25 -26 0
c (7,6 is not both 1 and 2
-28 -29 0
c (1,6 is not both 1 and 2
-31 -32 0
c (5,10 is not both 1 and 2
-34 -35 0
c (4,9 is not both 1 and 2
-37 -38 0
c (3,8 is not both 1 and 2
-40 -41 0
c (2,7 is not both 1 and 2
-43 -44 0
c (1,3 is not both 1 and 3
-1 -3 0
c (3,5 is not both 1 and 3
-4 -6 0
c (5,2 is not both 1 and 3
-7 -9 0
c (2,4 is not both 1 and 3
-10 -12 0
c (4,1 is not both 1 and 3
-13 -15 0
c (6,10 is not both 1 and 3
-16 -18 0
c (10,9 is not both 1 and 3
-19 -21 0
c (9,8 is not both 1 and 3
-22 -24 0
c (8,7 is not both 1 and 3
-25 -27 0
c (7,6 is not both 1 and 3
-28 -30 0
c (1,6 is not both 1 and 3
-31 -33 0
c (5,10 is not both 1 and 3
-34 -36 0
c (4,9 is not both 1 and 3
-37 -39 0
c (3,8 is not both 1 and 3
-40 -42 0
c (2,7 is not both 1 and 3
-43 -45 0
c (1,3 is not both 2 and 1
-2 -1 0
c (3,5 is not both 2 and 1
-5 -4 0
c (5,2 is not both 2 and 1
-8 -7 0
c (2,4 is not both 2 and 1
-11 -10 0
c (4,1 is not both 2 and 1
-14 -13 0
c (6,10 is not both 2 and 1
-17 -16 0
c (10,9 is not both 2 and 1
-20 -19 0
c (9,8 is not both 2 and 1
-23 -22 0
c (8,7 is not both 2 and 1
-26 -25 0
c (7,6 is not both 2 and 1
-29 -28 0
c (1,6 is not both 2 and 1
-32 -31 0
c (5,10 is not both 2 and 1
-35 -34 0
c (4,9 is not both 2 and 1
-38 -37 0
c (3,8 is not both 2 and 1
-41 -40 0
c (2,7 is not both 2 and 1
-44 -43 0
c (1,3 is not both 2 and 3
-2 -3 0
c (3,5 is not both 2 and 3
-5 -6 0
c (5,2 is not both 2 and 3
-8 -9 0
c (2,4 is not both 2 and 3
-11 -12 0
c (4,1 is not both 2 and 3
-14 -15 0
c (6,10 is not both 2 and 3
-17 -18 0
c (10,9 is not both 2 and 3
-20 -21 0
c (9,8 is not both 2 and 3
-23 -24 0
c (8,7 is not both 2 and 3
-26 -27 0
c (7,6 is not both 2 and 3
-29 -30 0
c (1,6 is not both 2 and 3
-32 -33 0
c (5,10 is not both 2 and 3
-35 -36 0
c (4,9 is not both 2 and 3
-38 -39 0
c (3,8 is not both 2 and 3
-41 -42 0
c (2,7 is not both 2 and 3
-44 -45 0
c (1,3 is not both 3 and 1
-3 -1 0
c (3,5 is not both 3 and 1
-6 -4 0
c (5,2 is not both 3 and 1
-9 -7 0
c (2,4 is not both 3 and 1
-12 -10 0
c (4,1 is not both 3 and 1
-15 -13 0
c (6,10 is not both 3 and 1
-18 -16 0
c (10,9 is not both 3 and 1
-21 -19 0
c (9,8 is not both 3 and 1
-24 -22 0
c (8,7 is not both 3 and 1
-27 -25 0
c (7,6 is not both 3 and 1
-30 -28 0
c (1,6 is not both 3 and 1
-33 -31 0
c (5,10 is not both 3 and 1
-36 -34 0
c (4,9 is not both 3 and 1
-39 -37 0
c (3,8 is not both 3 and 1
-42 -40 0
c (2,7 is not both 3 and 1
-45 -43 0
c (1,3 is not both 3 and 2
-3 -2 0
c (3,5 is not both 3 and 2
-6 -5 0
c (5,2 is not both 3 and 2
-9 -8 0
c (2,4 is not both 3 and 2
-12 -11 0
c (4,1 is not both 3 and 2
-15 -14 0
c (6,10 is not both 3 and 2
-18 -17 0
c (10,9 is not both 3 and 2
-21 -20 0
c (9,8 is not both 3 and 2
-24 -23 0
c (8,7 is not both 3 and 2
-27 -26 0
c (7,6 is not both 3 and 2
-30 -29 0
c (1,6 is not both 3 and 2
-33 -32 0
c (5,10 is not both 3 and 2
-36 -35 0
c (4,9 is not both 3 and 2
-39 -38 0
c (3,8 is not both 3 and 2
-42 -41 0
c (2,7 is not both 3 and 2
-45 -44 0
c Contraint 3
c c1 not on (1,3) or (v3,v4)
-1 -1 0
c c2 not on (1,3) or (v3,v4)
-2 -2 0
c c3 not on (1,3) or (v3,v4)
-3 -3 0
c c1 not on (1,3) or (v3,v4)
-1 -4 0
c c2 not on (1,3) or (v3,v4)
-2 -5 0
c c3 not on (1,3) or (v3,v4)
-3 -6 0
c c1 not on (1,3) or (v3,v4)
-1 -13 0
c c2 not on (1,3) or (v3,v4)
-2 -14 0
c c3 not on (1,3) or (v3,v4)
-3 -15 0
c c1 not on (1,3) or (v3,v4)
-1 -31 0
c c2 not on (1,3) or (v3,v4)
-2 -32 0
c c3 not on (1,3) or (v3,v4)
-3 -33 0
c c1 not on (1,3) or (v3,v4)
-1 -40 0
c c2 not on (1,3) or (v3,v4)
-2 -41 0
c c3 not on (1,3) or (v3,v4)
-3 -42 0
c c1 not on (3,5) or (v3,v4)
-4 -1 0
c c2 not on (3,5) or (v3,v4)
-5 -2 0
c c3 not on (3,5) or (v3,v4)
-6 -3 0
c c1 not on (3,5) or (v3,v4)
-4 -4 0
c c2 not on (3,5) or (v3,v4)
-5 -5 0
c c3 not on (3,5) or (v3,v4)
-6 -6 0
c c1 not on (3,5) or (v3,v4)
-4 -7 0
c c2 not on (3,5) or (v3,v4)
-5 -8 0
c c3 not on (3,5) or (v3,v4)
-6 -9 0
c c1 not on (3,5) or (v3,v4)
-4 -34 0
c c2 not on (3,5) or (v3,v4)
-5 -35 0
c c3 not on (3,5) or (v3,v4)
-6 -36 0
c c1 not on (3,5) or (v3,v4)
-4 -40 0
c c2 not on (3,5) or (v3,v4)
-5 -41 0
c c3 not on (3,5) or (v3,v4)
-6 -42 0
c c1 not on (5,2) or (v3,v4)
-7 -4 0
c c2 not on (5,2) or (v3,v4)
-8 -5 0
c c3 not on (5,2) or (v3,v4)
-9 -6 0
c c1 not on (5,2) or (v3,v4)
-7 -7 0
c c2 not on (5,2) or (v3,v4)
-8 -8 0
c c3 not on (5,2) or (v3,v4)
-9 -9 0
c c1 not on (5,2) or (v3,v4)
-7 -10 0
c c2 not on (5,2) or (v3,v4)
-8 -11 0
c c3 not on (5,2) or (v3,v4)
-9 -12 0
c c1 not on (5,2) or (v3,v4)
-7 -34 0
c c2 not on (5,2) or (v3,v4)
-8 -35 0
c c3 not on (5,2) or (v3,v4)
-9 -36 0
c c1 not on (5,2) or (v3,v4)
-7 -43 0
c c2 not on (5,2) or (v3,v4)
-8 -44 0
c c3 not on (5,2) or (v3,v4)
-9 -45 0
c c1 not on (2,4) or (v3,v4)
-10 -7 0
c c2 not on (2,4) or (v3,v4)
-11 -8 0
c c3 not on (2,4) or (v3,v4)
-12 -9 0
c c1 not on (2,4) or (v3,v4)
-10 -10 0
c c2 not on (2,4) or (v3,v4)
-11 -11 0
c c3 not on (2,4) or (v3,v4)
-12 -12 0
c c1 not on (2,4) or (v3,v4)
-10 -13 0
c c2 not on (2,4) or (v3,v4)
-11 -14 0
c c3 not on (2,4) or (v3,v4)
-12 -15 0
c c1 not on (2,4) or (v3,v4)
-10 -37 0
c c2 not on (2,4) or (v3,v4)
-11 -38 0
c c3 not on (2,4) or (v3,v4)
-12 -39 0
c c1 not on (2,4) or (v3,v4)
-10 -43 0
c c2 not on (2,4) or (v3,v4)
-11 -44 0
c c3 not on (2,4) or (v3,v4)
-12 -45 0
c c1 not on (4,1) or (v3,v4)
-13 -1 0
c c2 not on (4,1) or (v3,v4)
-14 -2 0
c c3 not on (4,1) or (v3,v4)
-15 -3 0
c c1 not on (4,1) or (v3,v4)
-13 -10 0
c c2 not on (4,1) or (v3,v4)
-14 -11 0
c c3 not on (4,1) or (v3,v4)
-15 -12 0
c c1 not on (4,1) or (v3,v4)
-13 -13 0
c c2 not on (4,1) or (v3,v4)
-14 -14 0
c c3 not on (4,1) or (v3,v4)
-15 -15 0
c c1 not on (4,1) or (v3,v4)
-13 -31 0
c c2 not on (4,1) or (v3,v4)
-14 -32 0
c c3 not on (4,1) or (v3,v4)
-15 -33 0
c c1 not on (4,1) or (v3,v4)
-13 -37 0
c c2 not on (4,1) or (v3,v4)
-14 -38 0
c c3 not on (4,1) or (v3,v4)
-15 -39 0
c c1 not on (6,10) or (v3,v4)
-16 -16 0
c c2 not on (6,10) or (v3,v4)
-17 -17 0
c c3 not on (6,10) or (v3,v4)
-18 -18 0
c c1 not on (6,10) or (v3,v4)
-16 -19 0
c c2 not on (6,10) or (v3,v4)
-17 -20 0
c c3 not on (6,10) or (v3,v4)
-18 -21 0
c c1 not on (6,10) or (v3,v4)
-16 -28 0
c c2 not on (6,10) or (v3,v4)
-17 -29 0
c c3 not on (6,10) or (v3,v4)
-18 -30 0
c c1 not on (6,10) or (v3,v4)
-16 -31 0
c c2 not on (6,10) or (v3,v4)
-17 -32 0
c c3 not on (6,10) or (v3,v4)
-18 -33 0
c c1 not on (6,10) or (v3,v4)
-16 -34 0
c c2 not on (6,10) or (v3,v4)
-17 -35 0
c c3 not on (6,10) or (v3,v4)
-18 -36 0
c c1 not on (10,9) or (v3,v4)
-19 -16 0
c c2 not on (10,9) or (v3,v4)
-20 -17 0
c c3 not on (10,9) or (v3,v4)
-21 -18 0
c c1 not on (10,9) or (v3,v4)
-19 -19 0
c c2 not on (10,9) or (v3,v4)
-20 -20 0
c c3 not on (10,9) or (v3,v4)
-21 -21 0
c c1 not on (10,9) or (v3,v4)
-19 -22 0
c c2 not on (10,9) or (v3,v4)
-20 -23 0
c c3 not on (10,9) or (v3,v4)
-21 -24 0
c c1 not on (10,9) or (v3,v4)
-19 -34 0
c c2 not on (10,9) or (v3,v4)
-20 -35 0
c c3 not on (10,9) or (v3,v4)
-21 -36 0
c c1 not on (10,9) or (v3,v4)
-19 -37 0
c c2 not on (10,9) or (v3,v4)
-20 -38 0
c c3 not on (10,9) or (v3,v4)
-21 -39 0
c c1 not on (9,8) or (v3,v4)
-22 -19 0
c c2 not on (9,8) or (v3,v4)
-23 -20 0
c c3 not on (9,8) or (v3,v4)
-24 -21 0
c c1 not on (9,8) or (v3,v4)
-22 -22 0
c c2 not on (9,8) or (v3,v4)
-23 -23 0
c c3 not on (9,8) or (v3,v4)
-24 -24 0
c c1 not on (9,8) or (v3,v4)
-22 -25 0
c c2 not on (9,8) or (v3,v4)
-23 -26 0
c c3 not on (9,8) or (v3,v4)
-24 -27 0
c c1 not on (9,8) or (v3,v4)
-22 -37 0
c c2 not on (9,8) or (v3,v4)
-23 -38 0
c c3 not on (9,8) or (v3,v4)
-24 -39 0
c c1 not on (9,8) or (v3,v4)
-22 -40 0
c c2 not on (9,8) or (v3,v4)
-23 -41 0
c c3 not on (9,8) or (v3,v4)
-24 -42 0
c c1 not on (8,7) or (v3,v4)
-25 -22 0
c c2 not on (8,7) or (v3,v4)
-26 -23 0
c c3 not on (8,7) or (v3,v4)
-27 -24 0
c c1 not on (8,7) or (v3,v4)
-25 -25 0
c c2 not on (8,7) or (v3,v4)
-26 -26 0
c c3 not on (8,7) or (v3,v4)
-27 -27 0
c c1 not on (8,7) or (v3,v4)
-25 -28 0
c c2 not on (8,7) or (v3,v4)
-26 -29 0
c c3 not on (8,7) or (v3,v4)
-27 -30 0
c c1 not on (8,7) or (v3,v4)
-25 -40 0
c c2 not on (8,7) or (v3,v4)
-26 -41 0
c c3 not on (8,7) or (v3,v4)
-27 -42 0
c c1 not on (8,7) or (v3,v4)
-25 -43 0
c c2 not on (8,7) or (v3,v4)
-26 -44 0
c c3 not on (8,7) or (v3,v4)
-27 -45 0
c c1 not on (7,6) or (v3,v4)
-28 -16 0
c c2 not on (7,6) or (v3,v4)
-29 -17 0
c c3 not on (7,6) or (v3,v4)
-30 -18 0
c c1 not on (7,6) or (v3,v4)
-28 -25 0
c c2 not on (7,6) or (v3,v4)
-29 -26 0
c c3 not on (7,6) or (v3,v4)
-30 -27 0
c c1 not on (7,6) or (v3,v4)
-28 -28 0
c c2 not on (7,6) or (v3,v4)
-29 -29 0
c c3 not on (7,6) or (v3,v4)
-30 -30 0
c c1 not on (7,6) or (v3,v4)
-28 -31 0
c c2 not on (7,6) or (v3,v4)
-29 -32 0
c c3 not on (7,6) or (v3,v4)
-30 -33 0
c c1 not on (7,6) or (v3,v4)
-28 -43 0
c c2 not on (7,6) or (v3,v4)
-29 -44 0
c c3 not on (7,6) or (v3,v4)
-30 -45 0
c c1 not on (1,6) or (v3,v4)
-31 -1 0
c c2 not on (1,6) or (v3,v4)
-32 -2 0
c c3 not on (1,6) or (v3,v4)
-33 -3 0
c c1 not on (1,6) or (v3,v4)
-31 -13 0
c c2 not on (1,6) or (v3,v4)
-32 -14 0
c c3 not on (1,6) or (v3,v4)
-33 -15 0
c c1 not on (1,6) or (v3,v4)
-31 -16 0
c c2 not on (1,6) or (v3,v4)
-32 -17 0
c c3 not on (1,6) or (v3,v4)
-33 -18 0
c c1 not on (1,6) or (v3,v4)
-31 -28 0
c c2 not on (1,6) or (v3,v4)
-32 -29 0
c c3 not on (1,6) or (v3,v4)
-33 -30 0
c c1 not on (1,6) or (v3,v4)
-31 -31 0
c c2 not on (1,6) or (v3,v4)
-32 -32 0
c c3 not on (1,6) or (v3,v4)
-33 -33 0
c c1 not on (5,10) or (v3,v4)
-34 -4 0
c c2 not on (5,10) or (v3,v4)
-35 -5 0
c c3 not on (5,10) or (v3,v4)
-36 -6 0
c c1 not on (5,10) or (v3,v4)
-34 -7 0
c c2 not on (5,10) or (v3,v4)
-35 -8 0
c c3 not on (5,10) or (v3,v4)
-36 -9 0
c c1 not on (5,10) or (v3,v4)
-34 -16 0
c c2 not on (5,10) or (v3,v4)
-35 -17 0
c c3 not on (5,10) or (v3,v4)
-36 -18 0
c c1 not on (5,10) or (v3,v4)
-34 -19 0
c c2 not on (5,10) or (v3,v4)
-35 -20 0
c c3 not on (5,10) or (v3,v4)
-36 -21 0
c c1 not on (5,10) or (v3,v4)
-34 -34 0
c c2 not on (5,10) or (v3,v4)
-35 -35 0
c c3 not on (5,10) or (v3,v4)
-36 -36 0
c c1 not on (4,9) or (v3,v4)
-37 -10 0
c c2 not on (4,9) or (v3,v4)
-38 -11 0
c c3 not on (4,9) or (v3,v4)
-39 -12 0
c c1 not on (4,9) or (v3,v4)
-37 -13 0
c c2 not on (4,9) or (v3,v4)
-38 -14 0
c c3 not on (4,9) or (v3,v4)
-39 -15 0
c c1 not on (4,9) or (v3,v4)
-37 -19 0
c c2 not on (4,9) or (v3,v4)
-38 -20 0
c c3 not on (4,9) or (v3,v4)
-39 -21 0
c c1 not on (4,9) or (v3,v4)
-37 -22 0
c c2 not on (4,9) or (v3,v4)
-38 -23 0
c c3 not on (4,9) or (v3,v4)
-39 -24 0
c c1 not on (4,9) or (v3,v4)
-37 -37 0
c c2 not on (4,9) or (v3,v4)
-38 -38 0
c c3 not on (4,9) or (v3,v4)
-39 -39 0
c c1 not on (3,8) or (v3,v4)
-40 -1 0
c c2 not on (3,8) or (v3,v4)
-41 -2 0
c c3 not on (3,8) or (v3,v4)
-42 -3 0
c c1 not on (3,8) or (v3,v4)
-40 -4 0
c c2 not on (3,8) or (v3,v4)
-41 -5 0
c c3 not on (3,8) or (v3,v4)
-42 -6 0
c c1 not on (3,8) or (v3,v4)
-40 -22 0
c c2 not on (3,8) or (v3,v4)
-41 -23 0
c c3 not on (3,8) or (v3,v4)
-42 -24 0
c c1 not on (3,8) or (v3,v4)
-40 -25 0
c c2 not on (3,8) or (v3,v4)
-41 -26 0
c c3 not on (3,8) or (v3,v4)
-42 -27 0
c c1 not on (3,8) or (v3,v4)
-40 -40 0
c c2 not on (3,8) or (v3,v4)
-41 -41 0
c c3 not on (3,8) or (v3,v4)
-42 -42 0
c c1 not on (2,7) or (v3,v4)
-43 -7 0
c c2 not on (2,7) or (v3,v4)
-44 -8 0
c c3 not on (2,7) or (v3,v4)
-45 -9 0
c c1 not on (2,7) or (v3,v4)
-43 -10 0
c c2 not on (2,7) or (v3,v4)
-44 -11 0
c c3 not on (2,7) or (v3,v4)
-45 -12 0
c c1 not on (2,7) or (v3,v4)
-43 -25 0
c c2 not on (2,7) or (v3,v4)
-44 -26 0
c c3 not on (2,7) or (v3,v4)
-45 -27 0
c c1 not on (2,7) or (v3,v4)
-43 -28 0
c c2 not on (2,7) or (v3,v4)
-44 -29 0
c c3 not on (2,7) or (v3,v4)
-45 -30 0
c c1 not on (2,7) or (v3,v4)
-43 -43 0
c c2 not on (2,7) or (v3,v4)
-44 -44 0
c c3 not on (2,7) or (v3,v4)
-45 -45 0
c Variable meanings:
c if 1 then x_1_3_1 => (x1, x3) is of color 1
c if 2 then x_1_3_2 => (x1, x3) is of color 2
c if 3 then x_1_3_3 => (x1, x3) is of color 3
c if 4 then x_3_5_1 => (x3, x5) is of color 1
c if 5 then x_3_5_2 => (x3, x5) is of color 2
c if 6 then x_3_5_3 => (x3, x5) is of color 3
c if 7 then x_5_2_1 => (x5, x2) is of color 1
c if 8 then x_5_2_2 => (x5, x2) is of color 2
c if 9 then x_5_2_3 => (x5, x2) is of color 3
c if 10 then x_2_4_1 => (x2, x4) is of color 1
c if 11 then x_2_4_2 => (x2, x4) is of color 2
c if 12 then x_2_4_3 => (x2, x4) is of color 3
c if 13 then x_4_1_1 => (x4, x1) is of color 1
c if 14 then x_4_1_2 => (x4, x1) is of color 2
c if 15 then x_4_1_3 => (x4, x1) is of color 3
c if 16 then x_6_10_1 => (x6, x10) is of color 1
c if 17 then x_6_10_2 => (x6, x10) is of color 2
c if 18 then x_6_10_3 => (x6, x10) is of color 3
c if 19 then x_10_9_1 => (x10, x9) is of color 1
c if 20 then x_10_9_2 => (x10, x9) is of color 2
c if 21 then x_10_9_3 => (x10, x9) is of color 3
c if 22 then x_9_8_1 => (x9, x8) is of color 1
c if 23 then x_9_8_2 => (x9, x8) is of color 2
c if 24 then x_9_8_3 => (x9, x8) is of color 3
c if 25 then x_8_7_1 => (x8, x7) is of color 1
c if 26 then x_8_7_2 => (x8, x7) is of color 2
c if 27 then x_8_7_3 => (x8, x7) is of color 3
c if 28 then x_7_6_1 => (x7, x6) is of color 1
c if 29 then x_7_6_2 => (x7, x6) is of color 2
c if 30 then x_7_6_3 => (x7, x6) is of color 3
c if 31 then x_1_6_1 => (x1, x6) is of color 1
c if 32 then x_1_6_2 => (x1, x6) is of color 2
c if 33 then x_1_6_3 => (x1, x6) is of color 3
c if 34 then x_5_10_1 => (x5, x10) is of color 1
c if 35 then x_5_10_2 => (x5, x10) is of color 2
c if 36 then x_5_10_3 => (x5, x10) is of color 3
c if 37 then x_4_9_1 => (x4, x9) is of color 1
c if 38 then x_4_9_2 => (x4, x9) is of color 2
c if 39 then x_4_9_3 => (x4, x9) is of color 3
c if 40 then x_3_8_1 => (x3, x8) is of color 1
c if 41 then x_3_8_2 => (x3, x8) is of color 2
c if 42 then x_3_8_3 => (x3, x8) is of color 3
c if 43 then x_2_7_1 => (x2, x7) is of color 1
c if 44 then x_2_7_2 => (x2, x7) is of color 2
c if 45 then x_2_7_3 => (x2, x7) is of color 3
